AME : levi30_8
COMMENT : 30: 30x24 -city problem (levikoppenhol)
TYPE : TSP
DIMENSION : 30
EDGE_WEIGHT_TYPE : EUC_2D
NODE_COORD_SECTION
1 18 7
2 15 9
3 15 10
4 5 13
5 18 25
6 18 25
7 23 14
8 21 0
9 10 23
10 22 28
11 12 5
12 6 17
13 4 17
14 5 8
15 6 24
16 4 17
17 0 24
18 23 18
19 8 9
20 10 24
21 10 15
22 23 8
23 22 26
24 18 7
25 24 15
26 16 11
27 15 2
28 9 10
29 5 17
30 1 7
EOF